Route #1: 37 5 8 27 10 44 47
Route #2: 29 51 35 33 7 43 2
Route #3: 48 38 34 32 19 15 13 46 9 16
Route #4: 26 22 17 49 50 12 23 45 4
Route #5: 28 11 21 14 39 24 31 3 30 18
Route #6: 6 36 1 20 42 40
Route #7: 41 25
Cost 762